!- Generated by SIH 2026 Shelter Simulation Engine (Canonical ShelterModel)
!- Shelter Model: Canonical Shelter
!- Geometry: 6.0m x 4.0m x 3.0m | Orientation: 0.0 deg | Roof: Flat (0.0 deg)
!- Computed Volume: 72.0 m3 | Floor Area: 24.0 m2

Version, 24.1;

Timestep, 4;

Building,
  shelter-ladakh-canonical-demo, !- Name
  0.00,              !- North Axis {deg} (Orientation mapping)
  Suburbs,                        !- Terrain
  0.04,                           !- Loads Convergence Tolerance Value {W}
  0.4,                            !- Temperature Convergence Tolerance Value {deltaC}
  FullExterior,                   !- Solar Distribution
  25,                             !- Maximum Number of Warmup Days
  6;                              !- Minimum Number of Warmup Days

SimulationControl,
  No,                             !- Do Zone Sizing Calculation
  No,                             !- Do System Sizing Calculation
  No,                             !- Do Plant Sizing Calculation
  No,                             !- Run Simulation for Sizing Periods
  Yes;                            !- Run Simulation for Weather File Run Periods

RunPeriod,
  SimulationRunPeriod,            !- Name
  1,             !- Begin Month
  15,               !- Begin Day of Month
  ,                               !- Begin Year
  1,               !- End Month
  15,                 !- End Day of Month
  ,                               !- End Year
  Tuesday,                        !- Day of Week for Start Day
  Yes,                            !- Use Weather File Holidays and Special Days
  Yes,                            !- Use Weather File Daylight Saving Period
  No,                             !- Apply Weekend Holiday Rule
  Yes,                            !- Use Weather File Rain Indicators
  Yes;                            !- Use Weather File Snow Indicators

Site:Location,
  Leh_Ladakh__India,                     !- Name
  34.1526,                          !- Latitude {deg}
  77.5771,                          !- Longitude {deg}
  5.5,                            !- Time Zone {hr}
  3500.0;                    !- Elevation {m}

SurfaceConvectionAlgorithm:Inside, TARP;
SurfaceConvectionAlgorithm:Outside, DOE-2;
HeatBalanceAlgorithm, ConductionTransferFunction;

!- Realistic alpine ground temperatures for high-altitude permafrost regime (Ladakh/Himalayas)
Site:GroundTemperature:BuildingSurface,
  -2.0,                           !- January Ground Temperature {C}
  -2.5,                           !- February Ground Temperature {C}
  -1.0,                           !- March Ground Temperature {C}
   2.0,                           !- April Ground Temperature {C}
   6.0,                           !- May Ground Temperature {C}
  10.0,                           !- June Ground Temperature {C}
  12.0,                           !- July Ground Temperature {C}
  11.0,                           !- August Ground Temperature {C}
   7.0,                           !- September Ground Temperature {C}
   3.0,                           !- October Ground Temperature {C}
  -0.5,                           !- November Ground Temperature {C}
  -1.5;                           !- December Ground Temperature {C};

!- ==========================================================================
!- MATERIALS & CONSTRUCTIONS (Verified thermophysical data)
!- ==========================================================================
Material,
  Mat_mat_eps_insulation_150mm,                     !- Name
  Smooth,                !- Roughness
  0.1500,          !- Thickness {m}
  0.0350, !- Conductivity {W/m-K}
  25.00,              !- Density {kg/m3}
  1400.00,        !- Specific Heat {J/kg-K}
  0.900,  !- Thermal Absorptance (Emissivity)
  0.600,    !- Solar Absorptance
  0.600;  !- Visible Absorptance

Material,
  Mat_mat_rammed_earth_200mm,                     !- Name
  Rough,                !- Roughness
  0.2000,          !- Thickness {m}
  1.2500, !- Conductivity {W/m-K}
  2000.00,              !- Density {kg/m3}
  900.00,        !- Specific Heat {J/kg-K}
  0.900,  !- Thermal Absorptance (Emissivity)
  0.720,    !- Solar Absorptance
  0.700;  !- Visible Absorptance

Material,
  Mat_mat_mineral_wool_200mm,                     !- Name
  MediumRough,                !- Roughness
  0.2000,          !- Thickness {m}
  0.0380, !- Conductivity {W/m-K}
  60.00,              !- Density {kg/m3}
  840.00,        !- Specific Heat {J/kg-K}
  0.900,  !- Thermal Absorptance (Emissivity)
  0.600,    !- Solar Absorptance
  0.600;  !- Visible Absorptance

Material,
  Mat_mat_concrete_slab_100mm,                     !- Name
  MediumRough,                !- Roughness
  0.1000,          !- Thickness {m}
  1.4000, !- Conductivity {W/m-K}
  2200.00,              !- Density {kg/m3}
  880.00,        !- Specific Heat {J/kg-K}
  0.900,  !- Thermal Absorptance (Emissivity)
  0.700,    !- Solar Absorptance
  0.700;  !- Visible Absorptance

Material,
  Mat_mat_xps_insulation_100mm,                     !- Name
  Smooth,                !- Roughness
  0.1000,          !- Thickness {m}
  0.0290, !- Conductivity {W/m-K}
  35.00,              !- Density {kg/m3}
  1450.00,        !- Specific Heat {J/kg-K}
  0.900,  !- Thermal Absorptance (Emissivity)
  0.600,    !- Solar Absorptance
  0.600;  !- Visible Absorptance

Material,
  Mat_mat_himalayan_timber_20mm,                     !- Name
  MediumSmooth,                !- Roughness
  0.0200,          !- Thickness {m}
  0.1300, !- Conductivity {W/m-K}
  520.00,              !- Density {kg/m3}
  1600.00,        !- Specific Heat {J/kg-K}
  0.900,  !- Thermal Absorptance (Emissivity)
  0.650,    !- Solar Absorptance
  0.650;  !- Visible Absorptance

Material,
  Mat_mat_eps_insulation_40mm,                     !- Name
  Smooth,                !- Roughness
  0.0400,          !- Thickness {m}
  0.0350, !- Conductivity {W/m-K}
  25.00,              !- Density {kg/m3}
  1400.00,        !- Specific Heat {J/kg-K}
  0.900,  !- Thermal Absorptance (Emissivity)
  0.600,    !- Solar Absorptance
  0.600;  !- Visible Absorptance

Construction,
  NorthWall_Const,                     !- Name (north_wall: North Wall Construction)
  Mat_mat_eps_insulation_150mm, !- Outside Layer
  Mat_mat_rammed_earth_200mm; !- Layer 2

Construction,
  SouthWall_Const,                     !- Name (south_wall: South Wall Construction)
  Mat_mat_eps_insulation_150mm, !- Outside Layer
  Mat_mat_rammed_earth_200mm; !- Layer 2

Construction,
  EastWall_Const,                     !- Name (east_wall: East Wall Construction)
  Mat_mat_eps_insulation_150mm, !- Outside Layer
  Mat_mat_rammed_earth_200mm; !- Layer 2

Construction,
  WestWall_Const,                     !- Name (west_wall: West Wall Construction)
  Mat_mat_eps_insulation_150mm, !- Outside Layer
  Mat_mat_rammed_earth_200mm; !- Layer 2

Construction,
  Roof_Const,                     !- Name (roof: Roof Construction)
  Mat_mat_mineral_wool_200mm; !- Outside Layer

Construction,
  Floor_Const,                     !- Name (floor: Floor Construction)
  Mat_mat_concrete_slab_100mm, !- Outside Layer
  Mat_mat_xps_insulation_100mm; !- Layer 2

Construction,
  Door_Const_north_01,                     !- Name (door_door_north_01: Insulated Timber Door (High Efficiency))
  Mat_mat_himalayan_timber_20mm, !- Outside Layer
  Mat_mat_eps_insulation_40mm, !- Layer 2
  Mat_mat_himalayan_timber_20mm; !- Layer 3

!- ==========================================================================
!- ZONE SPECIFICATION
!- ==========================================================================
Zone,
  MainZone,                       !- Name
  0.0,                            !- Direction of Relative North {deg}
  0.0,                            !- X Origin {m}
  0.0,                            !- Y Origin {m}
  0.0,                            !- Z Origin {m}
  1,                              !- Type
  1,                              !- Multiplier
  3.00, !- Ceiling Height {m}
  72.00;                   !- Volume {m3}

GlobalGeometryRules,
  UpperLeftCorner,                !- Starting Vertex Position
  CounterClockWise,               !- Vertex Entry Direction
  World;                          !- Coordinate System

BuildingSurface:Detailed,
  FloorSurface,                   !- Name
  Floor,                          !- Surface Type
  Floor_Const,                !- Construction Name
  MainZone,                       !- Zone Name
  ,                               !- Space Name
  Ground,                         !- Outside Boundary Condition
  ,                               !- Outside Boundary Condition Object
  NoSun,                          !- Sun Exposure
  NoWind,                         !- Wind Exposure
  0.0,                            !- View Factor to Ground
  4,                              !- Number of Vertices
  0.0, 0.0, 0.0,                  !- Vertex 1
  0.0, 4.000, 0.0,          !- Vertex 2
  6.000, 4.000, 0.0, !- Vertex 3
  6.000, 0.0, 0.0;         !- Vertex 4

BuildingSurface:Detailed,
  RoofSurface,                    !- Name
  Roof,                           !- Surface Type
  Roof_Const,                 !- Construction Name
  MainZone,                       !- Zone Name
  ,                               !- Space Name
  Outdoors,                       !- Outside Boundary Condition
  ,                               !- Outside Boundary Condition Object
  SunExposed,                     !- Sun Exposure
  WindExposed,                    !- Wind Exposure
  0.0,                            !- View Factor to Ground
  4,                              !- Number of Vertices
  0.0, 4.000, 3.000, !- Vertex 1
  0.0, 0.0, 3.000,         !- Vertex 2
  6.000, 0.0, 3.000,!- Vertex 3
  6.000, 4.000, 3.000; !- Vertex 4

BuildingSurface:Detailed,
  SouthWall,                      !- Name
  Wall,                           !- Surface Type
  SouthWall_Const,           !- Construction Name
  MainZone,                       !- Zone Name
  ,                               !- Space Name
  Outdoors,                       !- Outside Boundary Condition
  ,                               !- Outside Boundary Condition Object
  SunExposed,                     !- Sun Exposure
  WindExposed,                    !- Wind Exposure
  0.5,                            !- View Factor to Ground
  4,                              !- Number of Vertices
  0.0, 0.0, 3.000,         !- Vertex 1
  0.0, 0.0, 0.0,                  !- Vertex 2
  6.000, 0.0, 0.0,         !- Vertex 3
  6.000, 0.0, 3.000;!- Vertex 4

BuildingSurface:Detailed,
  NorthWall,                      !- Name
  Wall,                           !- Surface Type
  NorthWall_Const,           !- Construction Name
  MainZone,                       !- Zone Name
  ,                               !- Space Name
  Outdoors,                       !- Outside Boundary Condition
  ,                               !- Outside Boundary Condition Object
  SunExposed,                     !- Sun Exposure
  WindExposed,                    !- Wind Exposure
  0.5,                            !- View Factor to Ground
  4,                              !- Number of Vertices
  6.000, 4.000, 3.000, !- Vertex 1
  6.000, 4.000, 0.0,          !- Vertex 2
  0.0, 4.000, 0.0,                   !- Vertex 3
  0.0, 4.000, 3.000;          !- Vertex 4

BuildingSurface:Detailed,
  EastWall,                       !- Name
  Wall,                           !- Surface Type
  EastWall_Const,            !- Construction Name
  MainZone,                       !- Zone Name
  ,                               !- Space Name
  Outdoors,                       !- Outside Boundary Condition
  ,                               !- Outside Boundary Condition Object
  SunExposed,                     !- Sun Exposure
  WindExposed,                    !- Wind Exposure
  0.5,                            !- View Factor to Ground
  4,                              !- Number of Vertices
  6.000, 0.0, 3.000,     !- Vertex 1
  6.000, 0.0, 0.0,              !- Vertex 2
  6.000, 4.000, 0.0,      !- Vertex 3
  6.000, 4.000, 3.000; !- Vertex 4

BuildingSurface:Detailed,
  WestWall,                       !- Name
  Wall,                           !- Surface Type
  WestWall_Const,            !- Construction Name
  MainZone,                       !- Zone Name
  ,                               !- Space Name
  Outdoors,                       !- Outside Boundary Condition
  ,                               !- Outside Boundary Condition Object
  SunExposed,                     !- Sun Exposure
  WindExposed,                    !- Wind Exposure
  0.5,                            !- View Factor to Ground
  4,                              !- Number of Vertices
  0.0, 4.000, 3.000, !- Vertex 1
  0.0, 4.000, 0.0,          !- Vertex 2
  0.0, 0.0, 0.0,                  !- Vertex 3
  0.0, 0.0, 3.000;         !- Vertex 4

!- ==========================================================================
!- FENESTRATIONS & OPENINGS (Canonical ShelterModel Windows & Doors)
!- ==========================================================================
WindowMaterial:SimpleGlazingSystem,
  Single_Clear_Mat,                     !- Name
  5.80,                           !- U-Factor {W/m2-K}
  0.81,                           !- Solar Heat Gain Coefficient
  0.88;                           !- Visible Transmittance

Construction,
  Single_Clear_Const,                   !- Name
  Single_Clear_Mat;                     !- Outside Layer

WindowMaterial:SimpleGlazingSystem,
  Double_LowE_Argon_Mat,                     !- Name
  1.40,                           !- U-Factor {W/m2-K}
  0.40,                           !- Solar Heat Gain Coefficient
  0.65;                           !- Visible Transmittance

Construction,
  Double_LowE_Argon_Const,                   !- Name
  Double_LowE_Argon_Mat;                     !- Outside Layer

WindowMaterial:SimpleGlazingSystem,
  Triple_LowE_Krypton_Mat,                     !- Name
  0.80,                           !- U-Factor {W/m2-K}
  0.35,                           !- Solar Heat Gain Coefficient
  0.55;                           !- Visible Transmittance

Construction,
  Triple_LowE_Krypton_Const,                   !- Name
  Triple_LowE_Krypton_Mat;                     !- Outside Layer

FenestrationSurface:Detailed,
  win_south_01,                 !- Name
  Window,                         !- Surface Type
  Double_LowE_Argon_Const,                   !- Construction Name
  SouthWall,                    !- Building Surface Name
  ,                               !- Outside Boundary Condition Object
  0.5,                            !- View Factor to Ground
  ,                  !- Frame and Divider Name
  1,                              !- Multiplier
  4,                              !- Number of Vertices
  1.000, 0.000, 1.900, !- Vertex 1
  1.000, 0.000, 0.900, !- Vertex 2
  2.400, 0.000, 0.900, !- Vertex 3
  2.400, 0.000, 1.900; !- Vertex 4

FenestrationSurface:Detailed,
  win_south_02,                 !- Name
  Window,                         !- Surface Type
  Double_LowE_Argon_Const,                   !- Construction Name
  SouthWall,                    !- Building Surface Name
  ,                               !- Outside Boundary Condition Object
  0.5,                            !- View Factor to Ground
  ,                  !- Frame and Divider Name
  1,                              !- Multiplier
  4,                              !- Number of Vertices
  3.500, 0.000, 1.900, !- Vertex 1
  3.500, 0.000, 0.900, !- Vertex 2
  4.900, 0.000, 0.900, !- Vertex 3
  4.900, 0.000, 1.900; !- Vertex 4

FenestrationSurface:Detailed,
  door_north_01,                 !- Name
  Door,                           !- Surface Type
  Door_Const_north_01,              !- Construction Name
  NorthWall,                    !- Building Surface Name
  ,                               !- Outside Boundary Condition Object
  0.5,                            !- View Factor to Ground
  ,                               !- Frame and Divider Name
  1,                              !- Multiplier
  4,                              !- Number of Vertices
  4.500, 4.000, 2.000, !- Vertex 1
  4.500, 4.000, 0.000, !- Vertex 2
  3.600, 4.000, 0.000, !- Vertex 3
  3.600, 4.000, 2.000; !- Vertex 4

!- ==========================================================================
!- INTERNAL THERMAL MASS SPECIFICATIONS
!- ==========================================================================
Material,
  Mat_TM_mass_floor_slab,                     !- Name (Reinforced Concrete Slab (mat-concrete-slab))
  MediumRough,                    !- Roughness
  0.1000,                !- Thickness {m}
  1.4000,             !- Conductivity {W/m-K}
  2200.00,                  !- Density {kg/m3}
  880.00,            !- Specific Heat {J/kg-K}
  0.900,                !- Thermal Absorptance
  0.700,                  !- Solar Absorptance
  0.700;                  !- Visible Absorptance

Construction,
  Const_TM_mass_floor_slab,                   !- Name
  Mat_TM_mass_floor_slab;                     !- Outside Layer

InternalMass,
  mass_floor_slab,                 !- Name (Thermal Mass #1)
  Const_TM_mass_floor_slab,                   !- Construction Name
  MainZone,                       !- Zone Name
  ,                               !- Space Name
  24.00;           !- Surface Area {m2}

ScheduleTypeLimits, AnyNumber;

Schedule:Compact,
  AlwaysOnSchedule,               !- Name
  AnyNumber,                      !- Schedule Type Limits Name
  Through: 12/31,                 !- Field 1
  For: AllDays,                   !- Field 2
  Until: 24:00, 1.0;              !- Field 3

ZoneInfiltration:DesignFlowRate,
  MainZone_Infiltration,          !- Name
  MainZone,                       !- Zone Name
  AlwaysOnSchedule,               !- Schedule Name
  AirChanges/Hour,                !- Design Volume Flow Rate Calculation Method
  ,                               !- Design Volume Flow Rate {m3/s}
  ,                               !- Flow per Zone Floor Area {m3/s-m2}
  ,                               !- Flow per Exterior Surface Area {m3/s-m2}
  0.3500;                !- Air Changes per Hour {1/hr} (User Defined)

!- ==========================================================================
!- OUTPUT REQUESTS
!- ==========================================================================
Output:Variable, *, Site Direct Solar Radiation Rate per Area, Hourly;
Output:Variable, *, Site Diffuse Solar Radiation Rate per Area, Hourly;
Output:Variable, *, Surface Outside Face Incident Solar Radiation Rate per Area, Hourly;
Output:Variable, *, Surface Window Transmitted Solar Radiation Rate, Hourly;
Output:Variable, *, Zone Windows Total Transmitted Solar Radiation Rate, Hourly;
Output:Variable, *, Zone Windows Total Transmitted Solar Radiation Energy, Hourly;
Output:Variable, *, Surface Outside Face Solar Radiation Heat Gain Rate, Hourly;
Output:Variable, *, Surface Window Total Glazing Layers Absorbed Solar Radiation Rate, Hourly;
Output:Variable, *, Surface Inside Face Solar Radiation Heat Gain Rate, Hourly;
Output:Variable, *, Zone Windows Total Heat Gain Rate, Hourly;
Output:Variable, *, Zone Windows Total Heat Loss Rate, Hourly;
Output:Variable, *, Zone Mean Air Temperature, Hourly;
Output:Variable, *, Site Outdoor Air Drybulb Temperature, Hourly;
Output:Variable, *, Surface Inside Face Conduction Heat Transfer Rate, Hourly;
Output:Variable, *, Surface Outside Face Conduction Heat Transfer Rate, Hourly;
Output:Variable, *, Zone Infiltration Sensible Heat Loss Energy, Hourly;
Output:Variable, *, Zone Infiltration Sensible Heat Gain Energy, Hourly;
Output:Variable, *, Zone Infiltration Air Change Rate, Hourly;
Output:Variable, *, Zone Infiltration Current Density Volume Flow Rate, Hourly;
Output:Table:SummaryReports, AllSummary;
OutputControl:Table:Style, HTML;
Output:VariableDictionary, Regular;
