!- Generated by SIH 2026 Shelter Simulation Engine (Canonical ShelterModel)
!- Shelter Model: 10x5x3 (Flat)
!- Geometry: 10.0m x 5.0m x 3.0m | Orientation: 0.0 deg | Roof: Flat (0.0 deg)
!- Computed Volume: 150.0 m3 | Floor Area: 50.0 m2

Version, 24.1;

Timestep, 4;

Building,
  shelter_case_3, !- Name
  0.00,              !- North Axis {deg} (Orientation mapping)
  Suburbs,                        !- Terrain
  0.04,                           !- Loads Convergence Tolerance Value {W}
  0.4,                            !- Temperature Convergence Tolerance Value {deltaC}
  FullExterior,                   !- Solar Distribution
  25,                             !- Maximum Number of Warmup Days
  6;                              !- Minimum Number of Warmup Days

SimulationControl,
  No,                             !- Do Zone Sizing Calculation
  No,                             !- Do System Sizing Calculation
  No,                             !- Do Plant Sizing Calculation
  No,                             !- Run Simulation for Sizing Periods
  Yes;                            !- Run Simulation for Weather File Run Periods

RunPeriod,
  AnnualSimulation,               !- Name
  1,                  !- Begin Month
  1,                    !- Begin Day of Month
  ,                               !- Begin Year
  1,                  !- End Month
  2,                      !- End Day of Month
  ,                               !- End Year
  Tuesday,                        !- Day of Week for Start Day
  Yes,                            !- Use Weather File Holidays and Special Days
  Yes,                            !- Use Weather File Daylight Saving Period
  No,                             !- Apply Weekend Holiday Rule
  Yes,                            !- Use Weather File Rain Indicators
  Yes;                            !- Use Weather File Snow Indicators

Site:Location,
  Ladakh,                     !- Name
  34.1526,                          !- Latitude {deg}
  77.5771,                          !- Longitude {deg}
  5.5,                            !- Time Zone {hr}
  3500.0;                    !- Elevation {m}

SurfaceConvectionAlgorithm:Inside, TARP;
SurfaceConvectionAlgorithm:Outside, DOE-2;
HeatBalanceAlgorithm, ConductionTransferFunction;

!- ==========================================================================
!- MATERIALS & CONSTRUCTIONS
!- ==========================================================================
Material,
  EPS_Insulation,                 !- Name
  Smooth,                         !- Roughness
  0.10,                           !- Thickness {m}
  0.035,                          !- Conductivity {W/m-K}
  25.0,                           !- Density {kg/m3}
  1400.0,                         !- Specific Heat {J/kg-K}
  0.9,                            !- Thermal Absorptance
  0.6,                            !- Solar Absorptance
  0.6;                            !- Visible Absorptance

Material,
  RammedEarth,                    !- Name
  Rough,                          !- Roughness
  0.30,                           !- Thickness {m}
  1.25,                           !- Conductivity {W/m-K}
  2000.0,                         !- Density {kg/m3}
  900.0,                          !- Specific Heat {J/kg-K}
  0.9,                            !- Thermal Absorptance
  0.7,                            !- Solar Absorptance
  0.7;                            !- Visible Absorptance

Material,
  ConcreteSlab,                   !- Name
  MediumRough,                    !- Roughness
  0.15,                           !- Thickness {m}
  1.4,                            !- Conductivity {W/m-K}
  2200.0,                         !- Density {kg/m3}
  880.0,                          !- Specific Heat {J/kg-K}
  0.9,                            !- Thermal Absorptance
  0.7,                            !- Solar Absorptance
  0.7;                            !- Visible Absorptance

Material,
  MetalRoofing,                   !- Name
  Smooth,                         !- Roughness
  0.005,                          !- Thickness {m}
  45.0,                           !- Conductivity {W/m-K}
  7800.0,                         !- Density {kg/m3}
  500.0,                          !- Specific Heat {J/kg-K}
  0.9,                            !- Thermal Absorptance
  0.6,                            !- Solar Absorptance
  0.6;                            !- Visible Absorptance

Construction,
  WallConstruction,               !- Name
  EPS_Insulation,                 !- Outside Layer
  RammedEarth;                    !- Layer 2

Construction,
  RoofConstruction,               !- Name
  MetalRoofing,                   !- Outside Layer
  EPS_Insulation;                 !- Layer 2

Construction,
  FloorConstruction,              !- Name
  ConcreteSlab;                   !- Layer 1

!- ==========================================================================
!- ZONE SPECIFICATION
!- ==========================================================================
Zone,
  MainZone,                       !- Name
  0.0,                            !- Direction of Relative North {deg}
  0.0,                            !- X Origin {m}
  0.0,                            !- Y Origin {m}
  0.0,                            !- Z Origin {m}
  1,                              !- Type
  1,                              !- Multiplier
  3.00,     !- Ceiling Height {m}
  150.00;                   !- Volume {m3}

GlobalGeometryRules,
  UpperLeftCorner,                !- Starting Vertex Position
  CounterClockWise,               !- Vertex Entry Direction
  World;                          !- Coordinate System

BuildingSurface:Detailed,
  FloorSurface,                   !- Name
  Floor,                          !- Surface Type
  FloorConstruction,              !- Construction Name
  MainZone,                       !- Zone Name
  ,                               !- Space Name
  Ground,                         !- Outside Boundary Condition
  ,                               !- Outside Boundary Condition Object
  NoSun,                          !- Sun Exposure
  NoWind,                         !- Wind Exposure
  0.0,                            !- View Factor to Ground
  4,                              !- Number of Vertices
  0.0, 0.0, 0.0,                  !- Vertex 1
  0.0, 5.000, 0.0,          !- Vertex 2
  10.000, 5.000, 0.0, !- Vertex 3
  10.000, 0.0, 0.0;         !- Vertex 4

BuildingSurface:Detailed,
  RoofSurface,                    !- Name
  Roof,                           !- Surface Type
  RoofConstruction,               !- Construction Name
  MainZone,                       !- Zone Name
  ,                               !- Space Name
  Outdoors,                       !- Outside Boundary Condition
  ,                               !- Outside Boundary Condition Object
  SunExposed,                     !- Sun Exposure
  WindExposed,                    !- Wind Exposure
  0.0,                            !- View Factor to Ground
  4,                              !- Number of Vertices
  0.0, 5.000, 3.000, !- Vertex 1
  0.0, 0.0, 3.000,         !- Vertex 2
  10.000, 0.0, 3.000,!- Vertex 3
  10.000, 5.000, 3.000; !- Vertex 4

BuildingSurface:Detailed,
  SouthWall,                      !- Name
  Wall,                           !- Surface Type
  WallConstruction,               !- Construction Name
  MainZone,                       !- Zone Name
  ,                               !- Space Name
  Outdoors,                       !- Outside Boundary Condition
  ,                               !- Outside Boundary Condition Object
  SunExposed,                     !- Sun Exposure
  WindExposed,                    !- Wind Exposure
  0.5,                            !- View Factor to Ground
  4,                              !- Number of Vertices
  0.0, 0.0, 3.000,         !- Vertex 1
  0.0, 0.0, 0.0,                  !- Vertex 2
  10.000, 0.0, 0.0,         !- Vertex 3
  10.000, 0.0, 3.000;!- Vertex 4

BuildingSurface:Detailed,
  NorthWall,                      !- Name
  Wall,                           !- Surface Type
  WallConstruction,               !- Construction Name
  MainZone,                       !- Zone Name
  ,                               !- Space Name
  Outdoors,                       !- Outside Boundary Condition
  ,                               !- Outside Boundary Condition Object
  SunExposed,                     !- Sun Exposure
  WindExposed,                    !- Wind Exposure
  0.5,                            !- View Factor to Ground
  4,                              !- Number of Vertices
  10.000, 5.000, 3.000, !- Vertex 1
  10.000, 5.000, 0.0,          !- Vertex 2
  0.0, 5.000, 0.0,                   !- Vertex 3
  0.0, 5.000, 3.000;          !- Vertex 4

BuildingSurface:Detailed,
  EastWall,                       !- Name
  Wall,                           !- Surface Type
  WallConstruction,               !- Construction Name
  MainZone,                       !- Zone Name
  ,                               !- Space Name
  Outdoors,                       !- Outside Boundary Condition
  ,                               !- Outside Boundary Condition Object
  SunExposed,                     !- Sun Exposure
  WindExposed,                    !- Wind Exposure
  0.5,                            !- View Factor to Ground
  4,                              !- Number of Vertices
  10.000, 0.0, 3.000,     !- Vertex 1
  10.000, 0.0, 0.0,              !- Vertex 2
  10.000, 5.000, 0.0,      !- Vertex 3
  10.000, 5.000, 3.000; !- Vertex 4

BuildingSurface:Detailed,
  WestWall,                       !- Name
  Wall,                           !- Surface Type
  WallConstruction,               !- Construction Name
  MainZone,                       !- Zone Name
  ,                               !- Space Name
  Outdoors,                       !- Outside Boundary Condition
  ,                               !- Outside Boundary Condition Object
  SunExposed,                     !- Sun Exposure
  WindExposed,                    !- Wind Exposure
  0.5,                            !- View Factor to Ground
  4,                              !- Number of Vertices
  0.0, 5.000, 3.000, !- Vertex 1
  0.0, 5.000, 0.0,          !- Vertex 2
  0.0, 0.0, 0.0,                  !- Vertex 3
  0.0, 0.0, 3.000;         !- Vertex 4

ScheduleTypeLimits, AnyNumber;

Schedule:Compact,
  AlwaysOnSchedule,               !- Name
  AnyNumber,                      !- Schedule Type Limits Name
  Through: 12/31,                 !- Field 1
  For: AllDays,                   !- Field 2
  Until: 24:00, 1.0;              !- Field 3

ZoneInfiltration:DesignFlowRate,
  MainZone_Infiltration,          !- Name
  MainZone,                       !- Zone Name
  AlwaysOnSchedule,               !- Schedule Name
  AirChanges/Hour,                !- Design Volume Flow Rate Calculation Method
  ,                               !- Flow per Zone Floor Area {m3/s-m2}
  ,                               !- Flow per Exterior Surface Area {m3/s-m2}
  0.5;                            !- Air Changes per Hour {1/hr}

!- ==========================================================================
!- OUTPUT REQUESTS
!- ==========================================================================
Output:Variable, *, Zone Mean Air Temperature, Hourly;
Output:Variable, *, Site Outdoor Air Drybulb Temperature, Hourly;
Output:Variable, *, Site Direct Solar Radiation Rate per Area, Hourly;
Output:Variable, *, Site Diffuse Solar Radiation Rate per Area, Hourly;
Output:Variable, *, Surface Inside Face Conduction Heat Transfer Rate, Hourly;
Output:Variable, *, Surface Outside Face Conduction Heat Transfer Rate, Hourly;
Output:Table:SummaryReports, AllSummary;
OutputControl:Table:Style, HTML;
Output:VariableDictionary, Regular;
