LOCATION,Leh Outpost Live,OPEN-METEO,IND,High Altitude Satellite Station,999999,34.1300,77.6095,5.0,3411.0
DESIGN CONDITIONS,0
TYPICAL/EXTREME PERIODS,0
GROUND TEMPERATURES,0
HOLIDAYS/DAYLIGHT SAVINGS,No,0,0,0
COMMENTS 1,Live Satellite & High-Altitude Reanalysis from Open-Meteo
COMMENTS 2,SIH 2026 Autonomous Climate Ingestion Service
DATA PERIODS,1,1,Data,Sunday,1,1,12,31
2026,9,10,1,60,?9?9?9?9E0?9?9?9?9?9?9?9?9,9.40,-3.19,41.0,68200,1367,1367,255.3,0,0,0,0,0,0,0,22,0.27,5,5,9999,99999,0,0,0.0,0.0,0.0,0,0.2,0.0,0.0
2026,9,10,2,60,?9?9?9?9E0?9?9?9?9?9?9?9?9,9.30,-2.95,42.0,68240,1367,1367,254.9,58,100,6,0,0,0,0,15,0.57,5,5,9999,99999,0,0,0.0,0.0,0.0,0,0.2,0.0,0.0
2026,9,10,3,60,?9?9?9?9E0?9?9?9?9?9?9?9?9,13.20,-3.56,31.0,68650,1367,1367,267.3,270,664,43,0,0,0,0,360,1.00,5,5,9999,99999,0,0,0.0,0.0,0.0,0,0.2,0.0,0.0
2026,9,10,4,60,?9?9?9?9E0?9?9?9?9?9?9?9?9,15.20,-4.18,26.0,68830,1367,1367,272.6,507,860,61,0,0,0,0,261,0.66,5,5,9999,99999,0,0,0.0,0.0,0.0,0,0.2,0.0,0.0
2026,9,10,5,60,?9?9?9?9E0?9?9?9?9?9?9?9?9,16.70,-5.12,22.0,68920,1367,1367,275.2,712,950,71,0,0,0,0,274,0.75,5,5,9999,99999,0,0,0.0,0.0,0.0,0,0.2,0.0,0.0
2026,9,10,6,60,?9?9?9?9E0?9?9?9?9?9?9?9?9,18.30,-5.72,19.0,69010,1367,1367,278.8,866,998,77,0,0,0,0,284,1.03,5,5,9999,99999,0,0,0.0,0.0,0.0,0,0.2,0.0,0.0
2026,9,10,7,60,?9?9?9?9E0?9?9?9?9?9?9?9?9,18.70,-7.63,16.0,68980,1367,1367,275.3,961,1027,79,0,0,0,0,225,0.07,5,5,9999,99999,0,0,0.0,0.0,0.0,0,0.2,0.0,0.0
2026,9,10,8,60,?9?9?9?9E0?9?9?9?9?9?9?9?9,20.50,-7.03,15.0,69040,1367,1367,282.0,986,1040,80,0,0,0,0,256,0.41,5,5,9999,99999,0,0,0.0,0.0,0.0,0,0.2,0.0,0.0
2026,9,10,9,60,?9?9?9?9E0?9?9?9?9?9?9?9?9,21.00,-6.63,15.0,68980,1367,1367,283.5,899,934,127,0,0,0,0,315,1.41,5,5,9999,99999,0,0,0.0,0.0,0.0,0,0.2,0.0,0.0
2026,9,10,10,60,?9?9?9?9E0?9?9?9?9?9?9?9?9,21.60,-5.30,16.0,68900,1367,1367,287.7,823,1009,85,0,0,0,0,319,1.13,5,5,9999,99999,0,0,0.0,0.0,0.0,0,0.2,0.0,0.0
2026,9,10,11,60,?9?9?9?9E0?9?9?9?9?9?9?9?9,21.50,-6.23,15.0,68840,1367,1367,284.8,652,989,71,0,0,0,0,257,0.67,5,5,9999,99999,0,0,0.0,0.0,0.0,0,0.2,0.0,0.0
2026,9,10,12,60,?9?9?9?9E0?9?9?9?9?9?9?9?9,20.90,-5.86,16.0,68780,1367,1367,283.1,438,914,70,0,0,0,0,255,1.19,5,5,9999,99999,0,0,0.0,0.0,0.0,0,0.2,0.0,0.0
2026,9,10,13,60,?9?9?9?9E0?9?9?9?9?9?9?9?9,20.60,-5.31,17.0,68780,1367,1367,283.2,200,730,66,0,0,0,0,277,1.97,5,5,9999,99999,0,0,0.0,0.0,0.0,0,0.2,0.0,0.0
2026,9,10,14,60,?9?9?9?9E0?9?9?9?9?9?9?9?9,18.80,-2.77,23.0,68680,1367,1367,282.1,0,444,25,0,0,0,0,261,0.61,5,5,9999,99999,0,0,0.0,0.0,0.0,0,0.2,0.0,0.0
2026,9,10,15,60,?9?9?9?9E0?9?9?9?9?9?9?9?9,17.60,0.27,31.0,68660,1367,1367,285.0,0,0,0,0,0,0,0,281,0.51,5,5,9999,99999,0,0,0.0,0.0,0.0,0,0.2,0.0,0.0
2026,9,10,16,60,?9?9?9?9E0?9?9?9?9?9?9?9?9,16.70,-0.08,32.0,68690,1367,1367,281.8,0,0,0,0,0,0,0,311,0.46,5,5,9999,99999,0,0,0.0,0.0,0.0,0,0.2,0.0,0.0
2026,9,10,17,60,?9?9?9?9E0?9?9?9?9?9?9?9?9,15.90,-0.36,33.0,68680,1367,1367,279.3,0,0,0,0,0,0,0,315,0.28,5,5,9999,99999,0,0,0.0,0.0,0.0,0,0.2,0.0,0.0
2026,9,10,18,60,?9?9?9?9E0?9?9?9?9?9?9?9?9,15.20,-0.56,34.0,68690,1367,1367,277.5,0,0,0,0,0,0,0,270,0.15,5,5,9999,99999,0,0,0.0,0.0,0.0,0,0.2,0.0,0.0
2026,9,10,19,60,?9?9?9?9E0?9?9?9?9?9?9?9?9,14.40,-1.26,34.0,68670,1367,1367,274.2,0,0,0,0,0,0,0,315,0.21,5,5,9999,99999,0,0,0.0,0.0,0.0,0,0.2,0.0,0.0
2026,9,10,20,60,?9?9?9?9E0?9?9?9?9?9?9?9?9,13.30,-0.72,38.0,68600,1367,1367,272.4,0,0,0,0,0,0,0,270,0.10,5,5,9999,99999,0,0,0.0,0.0,0.0,0,0.2,0.0,0.0
2026,9,10,21,60,?9?9?9?9E0?9?9?9?9?9?9?9?9,12.40,-1.17,39.0,68520,1367,1367,269.1,0,0,0,0,0,0,0,360,0.15,5,5,9999,99999,0,0,0.0,0.0,0.0,0,0.2,0.0,0.0
2026,9,10,22,60,?9?9?9?9E0?9?9?9?9?9?9?9?9,11.40,-1.39,41.0,68470,1367,1367,265.7,0,0,0,0,0,0,0,8,0.35,5,5,9999,99999,0,0,0.0,0.0,0.0,0,0.2,0.0,0.0
2026,9,10,23,60,?9?9?9?9E0?9?9?9?9?9?9?9?9,10.50,-1.55,43.0,68440,1367,1367,262.5,0,0,0,0,0,0,0,18,0.47,5,5,9999,99999,0,0,0.0,0.0,0.0,0,0.2,0.0,0.0
2026,9,10,24,60,?9?9?9?9E0?9?9?9?9?9?9?9?9,9.90,-1.78,44.0,68440,1367,1367,260.0,0,0,0,0,0,0,0,22,0.54,5,5,9999,99999,0,0,0.0,0.0,0.0,0,0.2,0.0,0.0
2026,9,11,1,60,?9?9?9?9E0?9?9?9?9?9?9?9?9,10.40,-1.02,45.0,68490,1367,1367,263.2,0,0,0,0,0,0,0,360,0.45,5,5,9999,99999,0,0,0.0,0.0,0.0,0,0.2,0.0,0.0
2026,9,11,2,60,?9?9?9?9E0?9?9?9?9?9?9?9?9,10.00,-0.79,47.0,68520,1367,1367,261.7,60,102,6,0,0,0,0,18,0.63,5,5,9999,99999,0,0,0.0,0.0,0.0,0,0.2,0.0,0.0
2026,9,11,3,60,?9?9?9?9E0?9?9?9?9?9?9?9?9,13.10,-2.02,35.0,68840,1367,1367,270.0,266,657,43,0,0,0,0,360,0.75,5,5,9999,99999,0,0,0.0,0.0,0.0,0,0.2,0.0,0.0
2026,9,11,4,60,?9?9?9?9E0?9?9?9?9?9?9?9?9,14.80,-1.32,33.0,68980,1367,1367,276.9,504,855,62,0,0,0,0,279,0.30,5,5,9999,99999,0,0,0.0,0.0,0.0,0,0.2,0.0,0.0
2026,9,11,5,60,?9?9?9?9E0?9?9?9?9?9?9?9?9,16.40,-1.22,30.0,69080,1367,1367,282.0,709,946,73,0,0,0,0,211,0.29,5,5,9999,99999,0,0,0.0,0.0,0.0,0,0.2,0.0,0.0
2026,9,11,6,60,?9?9?9?9E0?9?9?9?9?9?9?9?9,18.00,-1.28,27.0,69170,1367,1367,286.8,862,994,78,0,0,0,0,222,0.60,5,5,9999,99999,0,0,0.0,0.0,0.0,0,0.2,0.0,0.0
2026,9,11,7,60,?9?9?9?9E0?9?9?9?9?9?9?9?9,18.60,-4.16,21.0,69140,1367,1367,281.7,947,999,92,0,0,0,0,234,0.43,5,5,9999,99999,0,0,0.0,0.0,0.0,0,0.2,0.0,0.0
2026,9,11,8,60,?9?9?9?9E0?9?9?9?9?9?9?9?9,20.30,-5.55,17.0,69210,1367,1367,284.1,982,1036,83,0,0,0,0,255,0.78,5,5,9999,99999,0,0,0.0,0.0,0.0,0,0.2,0.0,0.0
2026,9,11,9,60,?9?9?9?9E0?9?9?9?9?9?9?9?9,20.90,-6.71,15.0,69150,1367,1367,283.0,909,977,105,0,0,0,0,286,0.73,5,5,9999,99999,0,0,0.0,0.0,0.0,0,0.2,0.0,0.0
2026,9,11,10,60,?9?9?9?9E0?9?9?9?9?9?9?9?9,21.40,-8.16,13.0,69070,1367,1367,281.2,816,1000,89,0,0,0,0,299,1.25,5,5,9999,99999,0,0,0.0,0.0,0.0,0,0.2,0.0,0.0
2026,9,11,11,60,?9?9?9?9E0?9?9?9?9?9?9?9?9,21.60,-8.00,13.0,69000,1367,1367,281.7,650,982,78,0,0,0,0,289,1.53,5,5,9999,99999,0,0,0.0,0.0,0.0,0,0.2,0.0,0.0
2026,9,11,12,60,?9?9?9?9E0?9?9?9?9?9?9?9?9,21.20,-8.32,13.0,68920,1367,1367,279.4,429,888,77,0,0,0,0,288,1.79,5,5,9999,99999,0,0,0.0,0.0,0.0,0,0.2,0.0,0.0
2026,9,11,13,60,?9?9?9?9E0?9?9?9?9?9?9?9?9,20.80,-7.68,14.0,68890,1367,1367,279.3,201,779,58,0,0,0,0,273,1.95,5,5,9999,99999,0,0,0.0,0.0,0.0,0,0.2,0.0,0.0
2026,9,11,14,60,?9?9?9?9E0?9?9?9?9?9?9?9?9,19.10,-6.53,17.0,68770,1367,1367,275.6,0,429,25,0,0,0,0,194,0.21,5,5,9999,99999,0,0,0.0,0.0,0.0,0,0.2,0.0,0.0
2026,9,11,15,60,?9?9?9?9E0?9?9?9?9?9?9?9?9,17.70,-4.90,21.0,68730,1367,1367,274.4,0,0,0,0,0,0,0,143,0.25,5,5,9999,99999,0,0,0.0,0.0,0.0,0,0.2,0.0,0.0
2026,9,11,16,60,?9?9?9?9E0?9?9?9?9?9?9?9?9,16.80,-6.29,20.0,68720,1367,1367,269.4,0,0,0,0,0,0,0,153,0.34,5,5,9999,99999,0,0,0.0,0.0,0.0,0,0.2,0.0,0.0
2026,9,11,17,60,?9?9?9?9E0?9?9?9?9?9?9?9?9,15.90,-5.79,22.0,68690,1367,1367,268.2,0,0,0,0,0,0,0,135,0.21,5,5,9999,99999,0,0,0.0,0.0,0.0,0,0.2,0.0,0.0
2026,9,11,18,60,?9?9?9?9E0?9?9?9?9?9?9?9?9,15.10,-5.32,24.0,68650,1367,1367,267.5,0,0,0,0,0,0,0,90,0.15,5,5,9999,99999,0,0,0.0,0.0,0.0,0,0.2,0.0,0.0
2026,9,11,19,60,?9?9?9?9E0?9?9?9?9?9?9?9?9,15.10,-7.07,21.0,68680,1367,1367,265.6,0,0,0,0,0,0,0,360,0.20,5,5,9999,99999,0,0,0.0,0.0,0.0,0,0.2,0.0,0.0
2026,9,11,20,60,?9?9?9?9E0?9?9?9?9?9?9?9?9,14.20,-6.08,24.0,68610,1367,1367,265.3,0,0,0,0,0,0,0,360,0.10,5,5,9999,99999,0,0,0.0,0.0,0.0,0,0.2,0.0,0.0
2026,9,11,21,60,?9?9?9?9E0?9?9?9?9?9?9?9?9,13.20,-6.93,24.0,68550,1367,1367,261.1,0,0,0,0,0,0,0,34,0.18,5,5,9999,99999,0,0,0.0,0.0,0.0,0,0.2,0.0,0.0
2026,9,11,22,60,?9?9?9?9E0?9?9?9?9?9?9?9?9,12.60,-6.91,25.0,68540,1367,1367,259.7,0,0,0,0,0,0,0,27,0.11,5,5,9999,99999,0,0,0.0,0.0,0.0,0,0.2,0.0,0.0
2026,9,11,23,60,?9?9?9?9E0?9?9?9?9?9?9?9?9,11.90,-7.00,26.0,68520,1367,1367,257.5,0,0,0,0,0,0,0,11,0.25,5,5,9999,99999,0,0,0.0,0.0,0.0,0,0.2,0.0,0.0
2026,9,11,24,60,?9?9?9?9E0?9?9?9?9?9?9?9?9,11.10,-7.19,27.0,68490,1367,1367,254.5,0,0,0,0,0,0,0,16,0.36,5,5,9999,99999,0,0,0.0,0.0,0.0,0,0.2,0.0,0.0
2026,9,12,1,60,?9?9?9?9E0?9?9?9?9?9?9?9?9,11.30,-3.61,35.0,68610,1367,1367,261.4,0,0,0,0,0,0,0,351,0.30,5,5,9999,99999,0,0,0.0,0.0,0.0,0,0.2,0.0,0.0
2026,9,12,2,60,?9?9?9?9E0?9?9?9?9?9?9?9?9,10.90,-3.22,37.0,68640,1367,1367,260.2,56,89,6,0,0,0,0,22,0.27,5,5,9999,99999,0,0,0.0,0.0,0.0,0,0.2,0.0,0.0
2026,9,12,3,60,?9?9?9?9E0?9?9?9?9?9?9?9?9,13.50,-3.74,30.0,68930,1367,1367,268.1,261,645,43,0,0,0,0,20,0.59,5,5,9999,99999,0,0,0.0,0.0,0.0,0,0.2,0.0,0.0
2026,9,12,4,60,?9?9?9?9E0?9?9?9?9?9?9?9?9,15.00,-1.99,31.0,69050,1367,1367,276.2,497,841,64,0,0,0,0,135,0.21,5,5,9999,99999,0,0,0.0,0.0,0.0,0,0.2,0.0,0.0
2026,9,12,5,60,?9?9?9?9E0?9?9?9?9?9?9?9?9,16.30,-1.31,30.0,69120,1367,1367,281.5,698,926,77,0,0,0,0,236,0.36,5,5,9999,99999,0,0,0.0,0.0,0.0,0,0.2,0.0,0.0
2026,9,12,6,60,?9?9?9?9E0?9?9?9?9?9?9?9?9,17.90,-1.37,27.0,69190,1367,1367,286.2,852,977,83,0,0,0,0,279,0.91,5,5,9999,99999,0,0,0.0,0.0,0.0,0,0.2,0.0,0.0
2026,9,12,7,60,?9?9?9?9E0?9?9?9?9?9?9?9?9,18.60,-2.37,24.0,69170,1367,1367,285.4,890,911,112,0,0,0,0,264,0.91,5,5,9999,99999,0,0,0.0,0.0,0.0,0,0.2,0.0,0.0
2026,9,12,8,60,?9?9?9?9E0?9?9?9?9?9?9?9?9,19.80,-3.16,21.0,69180,1367,1367,287.1,929,926,128,0,0,0,0,285,1.14,5,5,9999,99999,0,0,0.0,0.0,0.0,0,0.2,0.0,0.0
2026,9,12,9,60,?9?9?9?9E0?9?9?9?9?9?9?9?9,20.40,-3.32,20.0,69130,1367,1367,288.0,862,878,143,0,0,0,0,263,0.40,5,5,9999,99999,0,0,0.0,0.0,0.0,0,0.2,0.0,0.0
2026,9,12,10,60,?9?9?9?9E0?9?9?9?9?9?9?9?9,21.40,-5.46,16.0,69050,1367,1367,286.5,789,959,97,0,0,0,0,198,0.16,5,5,9999,99999,0,0,0.0,0.0,0.0,0,0.2,0.0,0.0
2026,9,12,11,60,?9?9?9?9E0?9?9?9?9?9?9?9?9,21.80,-6.89,14.0,68970,1367,1367,284.7,638,964,82,0,0,0,0,338,0.92,5,5,9999,99999,0,0,0.0,0.0,0.0,0,0.2,0.0,0.0
2026,9,12,12,60,?9?9?9?9E0?9?9?9?9?9?9?9?9,21.30,-8.24,13.0,68890,1367,1367,280.0,432,925,67,0,0,0,0,345,2.28,5,5,9999,99999,0,0,0.0,0.0,0.0,0,0.2,0.0,0.0
2026,9,12,13,60,?9?9?9?9E0?9?9?9?9?9?9?9?9,20.20,-8.15,14.0,68820,1367,1367,276.2,199,798,55,0,0,0,0,342,2.69,5,5,9999,99999,0,0,0.0,0.0,0.0,0,0.2,0.0,0.0
2026,9,12,14,60,?9?9?9?9E0?9?9?9?9?9?9?9?9,18.30,-7.17,17.0,68730,1367,1367,271.4,0,429,23,0,0,0,0,299,1.32,5,5,9999,99999,0,0,0.0,0.0,0.0,0,0.2,0.0,0.0
2026,9,12,15,60,?9?9?9?9E0?9?9?9?9?9?9?9?9,17.20,-5.32,21.0,68730,1367,1367,271.7,0,0,0,0,0,0,0,288,0.47,5,5,9999,99999,0,0,0.0,0.0,0.0,0,0.2,0.0,0.0
2026,9,12,16,60,?9?9?9?9E0?9?9?9?9?9?9?9?9,16.40,-2.16,28.0,68750,1367,1367,276.1,0,0,0,0,0,0,0,180,0.10,5,5,9999,99999,0,0,0.0,0.0,0.0,0,0.2,0.0,0.0
2026,9,12,17,60,?9?9?9?9E0?9?9?9?9?9?9?9?9,15.50,-1.56,31.0,68720,1367,1367,275.2,0,0,0,0,0,0,0,270,0.00,5,5,9999,99999,0,0,0.0,0.0,0.0,0,0.2,0.0,0.0
2026,9,12,18,60,?9?9?9?9E0?9?9?9?9?9?9?9?9,14.50,-5.29,25.0,68670,1367,1367,265.3,0,0,0,0,0,0,0,309,0.32,5,5,9999,99999,0,0,0.0,0.0,0.0,0,0.2,0.0,0.0
2026,9,12,19,60,?9?9?9?9E0?9?9?9?9?9?9?9?9,13.60,-4.57,28.0,68660,1367,1367,264.6,0,0,0,0,0,0,0,299,0.51,5,5,9999,99999,0,0,0.0,0.0,0.0,0,0.2,0.0,0.0
2026,9,12,20,60,?9?9?9?9E0?9?9?9?9?9?9?9?9,12.70,-3.57,32.0,68640,1367,1367,264.4,0,0,0,0,0,0,0,307,0.50,5,5,9999,99999,0,0,0.0,0.0,0.0,0,0.2,0.0,0.0
2026,9,12,21,60,?9?9?9?9E0?9?9?9?9?9?9?9?9,12.00,-2.99,35.0,68610,1367,1367,264.0,0,0,0,0,0,0,0,330,0.40,5,5,9999,99999,0,0,0.0,0.0,0.0,0,0.2,0.0,0.0
2026,9,12,22,60,?9?9?9?9E0?9?9?9?9?9?9?9?9,11.50,-2.68,37.0,68580,1367,1367,263.5,0,0,0,0,0,0,0,344,0.36,5,5,9999,99999,0,0,0.0,0.0,0.0,0,0.2,0.0,0.0
2026,9,12,23,60,?9?9?9?9E0?9?9?9?9?9?9?9?9,10.80,-2.60,39.0,68560,1367,1367,261.5,0,0,0,0,0,0,0,342,0.32,5,5,9999,99999,0,0,0.0,0.0,0.0,0,0.2,0.0,0.0
2026,9,12,24,60,?9?9?9?9E0?9?9?9?9?9?9?9?9,10.20,-2.80,40.0,68560,1367,1367,259.1,0,0,0,0,0,0,0,352,0.35,5,5,9999,99999,0,0,0.0,0.0,0.0,0,0.2,0.0,0.0
