LOCATION,Leh NASA Satellite Station,NASA-POWER,IND,NASA POWER Satellite Reanalysis,999999,34.1530,77.5770,5.0,4532.6
DESIGN CONDITIONS,0
TYPICAL/EXTREME PERIODS,0
GROUND TEMPERATURES,0
HOLIDAYS/DAYLIGHT SAVINGS,No,0,0,0
COMMENTS 1,NASA POWER Satellite Hourly Meteorological Dataset
COMMENTS 2,Generated by SIH 2026 High Altitude Shelter Platform
DATA PERIODS,1,1,Data,Sunday,1,1,1,2
2023,1,1,1,60,?9?9?9?9E0?9?9?9?9?9?9?9?9,-21.01,-22.10,90.9,58220,1414,1414,149.0,0,0,0,0,0,0,0,162,1.70,5,5,9999,99999,0,0,0.0,0.0,0.0,0,0.2,0.0,0.0
2023,1,1,2,60,?9?9?9?9E0?9?9?9?9?9?9?9?9,-21.74,-22.40,94.3,58220,1414,1414,147.2,0,0,0,0,0,0,0,152,1.83,5,5,9999,99999,0,0,0.0,0.0,0.0,0,0.2,0.0,0.0
2023,1,1,3,60,?9?9?9?9E0?9?9?9?9?9?9?9?9,-22.35,-22.86,95.6,58210,1414,1414,145.8,0,0,0,0,0,0,0,145,1.89,5,5,9999,99999,0,0,0.0,0.0,0.0,0,0.2,0.0,0.0
2023,1,1,4,60,?9?9?9?9E0?9?9?9?9?9?9?9?9,-22.84,-23.36,95.5,58200,1414,1414,144.7,0,0,0,0,0,0,0,139,1.94,5,5,9999,99999,0,0,0.0,0.0,0.0,0,0.2,0.0,0.0
2023,1,1,5,60,?9?9?9?9E0?9?9?9?9?9?9?9?9,-23.20,-23.75,95.2,58190,1414,1414,143.9,0,0,0,0,0,0,0,135,1.97,5,5,9999,99999,0,0,0.0,0.0,0.0,0,0.2,0.0,0.0
2023,1,1,6,60,?9?9?9?9E0?9?9?9?9?9?9?9?9,-23.48,-24.31,92.8,58200,1414,1414,143.2,0,0,0,0,0,0,0,132,1.98,5,5,9999,99999,0,0,0.0,0.0,0.0,0,0.2,0.0,0.0
2023,1,1,7,60,?9?9?9?9E0?9?9?9?9?9?9?9?9,-23.77,-25.07,89.0,58220,1414,1414,142.6,0,0,0,0,0,0,0,132,2.02,5,5,9999,99999,0,0,0.0,0.0,0.0,0,0.2,0.0,0.0
2023,1,1,8,60,?9?9?9?9E0?9?9?9?9?9?9?9?9,-23.02,-25.97,76.6,58240,1414,1414,144.3,77,477,25,0,0,0,0,133,2.23,5,5,9999,99999,0,0,0.0,0.0,0.0,0,0.2,0.0,0.0
2023,1,1,9,60,?9?9?9?9E0?9?9?9?9?9?9?9?9,-20.40,-26.06,60.3,58270,1414,1414,150.4,276,874,54,0,0,0,0,137,2.26,5,5,9999,99999,0,0,0.0,0.0,0.0,0,0.2,0.0,0.0
2023,1,1,10,60,?9?9?9?9E0?9?9?9?9?9?9?9?9,-15.17,-24.86,43.2,58300,1414,1414,163.3,451,939,90,0,0,0,0,173,1.90,5,5,9999,99999,0,0,0.0,0.0,0.0,0,0.2,0.0,0.0
2023,1,1,11,60,?9?9?9?9E0?9?9?9?9?9?9?9?9,-11.69,-25.98,29.3,58290,1414,1414,172.2,579,1039,98,0,0,0,0,228,3.21,5,5,9999,99999,0,0,0.0,0.0,0.0,0,0.2,0.0,0.0
2023,1,1,12,60,?9?9?9?9E0?9?9?9?9?9?9?9?9,-10.29,-25.68,27.0,58240,1414,1414,176.0,650,1038,82,0,0,0,0,243,4.18,5,5,9999,99999,0,0,0.0,0.0,0.0,0,0.2,0.0,0.0
2023,1,1,13,60,?9?9?9?9E0?9?9?9?9?9?9?9?9,-9.71,-25.31,26.6,58190,1414,1414,177.5,635,949,113,0,0,0,0,253,4.36,5,5,9999,99999,0,0,0.0,0.0,0.0,0,0.2,0.0,0.0
2023,1,1,14,60,?9?9?9?9E0?9?9?9?9?9?9?9?9,-9.66,-25.04,27.2,58150,1414,1414,177.7,528,808,195,0,0,0,0,258,4.21,5,5,9999,99999,0,0,0.0,0.0,0.0,0,0.2,0.0,0.0
2023,1,1,15,60,?9?9?9?9E0?9?9?9?9?9?9?9?9,-9.98,-24.45,29.4,58130,1414,1414,176.8,399,773,140,0,0,0,0,263,3.86,5,5,9999,99999,0,0,0.0,0.0,0.0,0,0.2,0.0,0.0
2023,1,1,16,60,?9?9?9?9E0?9?9?9?9?9?9?9?9,-11.07,-22.81,37.2,58130,1414,1414,173.9,219,693,77,0,0,0,0,264,3.05,5,5,9999,99999,0,0,0.0,0.0,0.0,0,0.2,0.0,0.0
2023,1,1,17,60,?9?9?9?9E0?9?9?9?9?9?9?9?9,-13.10,-23.59,40.8,58130,1414,1414,168.6,41,304,19,0,0,0,0,262,2.23,5,5,9999,99999,0,0,0.0,0.0,0.0,0,0.2,0.0,0.0
2023,1,1,18,60,?9?9?9?9E0?9?9?9?9?9?9?9?9,-14.30,-24.98,39.8,58150,1414,1414,165.5,0,0,0,0,0,0,0,260,1.76,5,5,9999,99999,0,0,0.0,0.0,0.0,0,0.2,0.0,0.0
2023,1,1,19,60,?9?9?9?9E0?9?9?9?9?9?9?9?9,-15.05,-25.04,42.0,58180,1414,1414,163.6,0,0,0,0,0,0,0,257,1.57,5,5,9999,99999,0,0,0.0,0.0,0.0,0,0.2,0.0,0.0
2023,1,1,20,60,?9?9?9?9E0?9?9?9?9?9?9?9?9,-15.87,-25.56,42.9,58200,1414,1414,161.5,0,0,0,0,0,0,0,254,1.48,5,5,9999,99999,0,0,0.0,0.0,0.0,0,0.2,0.0,0.0
2023,1,1,21,60,?9?9?9?9E0?9?9?9?9?9?9?9?9,-16.69,-25.79,45.0,58220,1414,1414,159.4,0,0,0,0,0,0,0,250,1.38,5,5,9999,99999,0,0,0.0,0.0,0.0,0,0.2,0.0,0.0
2023,1,1,22,60,?9?9?9?9E0?9?9?9?9?9?9?9?9,-17.44,-25.87,47.6,58230,1414,1414,157.6,0,0,0,0,0,0,0,244,1.24,5,5,9999,99999,0,0,0.0,0.0,0.0,0,0.2,0.0,0.0
2023,1,1,23,60,?9?9?9?9E0?9?9?9?9?9?9?9?9,-18.09,-25.81,50.6,58240,1414,1414,156.0,0,0,0,0,0,0,0,233,1.11,5,5,9999,99999,0,0,0.0,0.0,0.0,0,0.2,0.0,0.0
2023,1,1,24,60,?9?9?9?9E0?9?9?9?9?9?9?9?9,-18.74,-25.58,54.6,58230,1414,1414,154.4,0,0,0,0,0,0,0,215,1.03,5,5,9999,99999,0,0,0.0,0.0,0.0,0,0.2,0.0,0.0
2023,1,2,1,60,?9?9?9?9E0?9?9?9?9?9?9?9?9,-19.45,-25.51,58.5,58220,1414,1414,152.7,0,0,0,0,0,0,0,192,1.08,5,5,9999,99999,0,0,0.0,0.0,0.0,0,0.2,0.0,0.0
2023,1,2,2,60,?9?9?9?9E0?9?9?9?9?9?9?9?9,-20.26,-25.26,64.1,58210,1414,1414,150.7,0,0,0,0,0,0,0,172,1.28,5,5,9999,99999,0,0,0.0,0.0,0.0,0,0.2,0.0,0.0
2023,1,2,3,60,?9?9?9?9E0?9?9?9?9?9?9?9?9,-21.10,-25.02,70.5,58190,1414,1414,148.8,0,0,0,0,0,0,0,158,1.53,5,5,9999,99999,0,0,0.0,0.0,0.0,0,0.2,0.0,0.0
2023,1,2,4,60,?9?9?9?9E0?9?9?9?9?9?9?9?9,-21.91,-24.79,77.3,58160,1414,1414,146.9,0,0,0,0,0,0,0,146,1.74,5,5,9999,99999,0,0,0.0,0.0,0.0,0,0.2,0.0,0.0
2023,1,2,5,60,?9?9?9?9E0?9?9?9?9?9?9?9?9,-22.64,-24.72,83.0,58140,1414,1414,145.2,0,0,0,0,0,0,0,140,1.90,5,5,9999,99999,0,0,0.0,0.0,0.0,0,0.2,0.0,0.0
2023,1,2,6,60,?9?9?9?9E0?9?9?9?9?9?9?9?9,-23.34,-24.80,87.7,58150,1414,1414,143.5,0,0,0,0,0,0,0,139,2.12,5,5,9999,99999,0,0,0.0,0.0,0.0,0,0.2,0.0,0.0
2023,1,2,7,60,?9?9?9?9E0?9?9?9?9?9?9?9?9,-24.10,-25.04,91.8,58170,1414,1414,141.8,0,0,0,0,0,0,0,139,2.21,5,5,9999,99999,0,0,0.0,0.0,0.0,0,0.2,0.0,0.0
2023,1,2,8,60,?9?9?9?9E0?9?9?9?9?9?9?9?9,-24.06,-25.37,88.8,58190,1414,1414,141.9,76,475,25,0,0,0,0,138,2.38,5,5,9999,99999,0,0,0.0,0.0,0.0,0,0.2,0.0,0.0
2023,1,2,9,60,?9?9?9?9E0?9?9?9?9?9?9?9?9,-21.78,-24.79,76.4,58210,1414,1414,147.2,271,837,68,0,0,0,0,137,2.48,5,5,9999,99999,0,0,0.0,0.0,0.0,0,0.2,0.0,0.0
2023,1,2,10,60,?9?9?9?9E0?9?9?9?9?9?9?9?9,-16.93,-22.17,63.6,58210,1414,1414,158.8,445,880,119,0,0,0,0,155,2.76,5,5,9999,99999,0,0,0.0,0.0,0.0,0,0.2,0.0,0.0
2023,1,2,11,60,?9?9?9?9E0?9?9?9?9?9?9?9?9,-13.64,-22.29,47.9,58180,1414,1414,167.2,570,972,142,0,0,0,0,198,3.01,5,5,9999,99999,0,0,0.0,0.0,0.0,0,0.2,0.0,0.0
2023,1,2,12,60,?9?9?9?9E0?9?9?9?9?9?9?9?9,-11.91,-22.61,40.5,58110,1414,1414,171.7,636,1068,144,0,0,0,0,220,3.59,5,5,9999,99999,0,0,0.0,0.0,0.0,0,0.2,0.0,0.0
2023,1,2,13,60,?9?9?9?9E0?9?9?9?9?9?9?9?9,-11.06,-22.48,38.2,58040,1414,1414,173.9,619,916,222,0,0,0,0,230,4.04,5,5,9999,99999,0,0,0.0,0.0,0.0,0,0.2,0.0,0.0
2023,1,2,14,60,?9?9?9?9E0?9?9?9?9?9?9?9?9,-10.86,-22.28,38.3,57980,1414,1414,174.4,533,738,228,0,0,0,0,236,4.39,5,5,9999,99999,0,0,0.0,0.0,0.0,0,0.2,0.0,0.0
2023,1,2,15,60,?9?9?9?9E0?9?9?9?9?9?9?9?9,-11.29,-21.90,41.0,57970,1414,1414,173.3,388,664,184,0,0,0,0,240,4.35,5,5,9999,99999,0,0,0.0,0.0,0.0,0,0.2,0.0,0.0
2023,1,2,16,60,?9?9?9?9E0?9?9?9?9?9?9?9?9,-12.27,-20.62,49.6,57980,1414,1414,170.7,209,425,118,0,0,0,0,245,3.48,5,5,9999,99999,0,0,0.0,0.0,0.0,0,0.2,0.0,0.0
2023,1,2,17,60,?9?9?9?9E0?9?9?9?9?9?9?9?9,-13.83,-21.51,52.1,57990,1414,1414,166.7,36,223,30,0,0,0,0,254,2.64,5,5,9999,99999,0,0,0.0,0.0,0.0,0,0.2,0.0,0.0
2023,1,2,18,60,?9?9?9?9E0?9?9?9?9?9?9?9?9,-14.63,-20.77,59.4,58030,1414,1414,164.6,0,0,0,0,0,0,0,266,1.72,5,5,9999,99999,0,0,0.0,0.0,0.0,0,0.2,0.0,0.0
2023,1,2,19,60,?9?9?9?9E0?9?9?9?9?9?9?9?9,-15.05,-20.82,61.2,58070,1414,1414,163.6,0,0,0,0,0,0,0,275,1.45,5,5,9999,99999,0,0,0.0,0.0,0.0,0,0.2,0.0,0.0
2023,1,2,20,60,?9?9?9?9E0?9?9?9?9?9?9?9?9,-15.59,-21.08,62.6,58090,1414,1414,162.2,0,0,0,0,0,0,0,277,1.17,5,5,9999,99999,0,0,0.0,0.0,0.0,0,0.2,0.0,0.0
2023,1,2,21,60,?9?9?9?9E0?9?9?9?9?9?9?9?9,-16.31,-21.11,66.3,58100,1414,1414,160.4,0,0,0,0,0,0,0,266,1.10,5,5,9999,99999,0,0,0.0,0.0,0.0,0,0.2,0.0,0.0
2023,1,2,22,60,?9?9?9?9E0?9?9?9?9?9?9?9?9,-16.97,-21.04,70.5,58100,1414,1414,158.7,0,0,0,0,0,0,0,253,1.19,5,5,9999,99999,0,0,0.0,0.0,0.0,0,0.2,0.0,0.0
2023,1,2,23,60,?9?9?9?9E0?9?9?9?9?9?9?9?9,-17.45,-20.77,75.2,58090,1414,1414,157.6,0,0,0,0,0,0,0,243,1.24,5,5,9999,99999,0,0,0.0,0.0,0.0,0,0.2,0.0,0.0
2023,1,2,24,60,?9?9?9?9E0?9?9?9?9?9?9?9?9,-17.96,-20.61,79.6,58080,1414,1414,156.3,0,0,0,0,0,0,0,232,1.22,5,5,9999,99999,0,0,0.0,0.0,0.0,0,0.2,0.0,0.0
